
Gurobi 12.0.2 (linux64) logging started Di 19 Aug 2025 14:41:29 CEST

Set parameter LogFile to value "linear_model.log"
Gurobi Optimizer version 12.0.2 build v12.0.2rc0 (linux64 - "Ubuntu 22.04.5 LTS")

CPU model: Intel(R) Core(TM) i7-10510U CPU @ 1.80GHz, instruction set [SSE2|AVX|AVX2]
Thread count: 4 physical cores, 8 logical processors, using up to 4 threads

Non-default parameters:
TimeLimit  30
MIPGap  0
Method  2
Threads  4

Academic license 2623289 - for non-commercial use only - registered to ue___@student.kit.edu
Optimize a model with 713 rows, 4073 columns and 36458 nonzeros
Model fingerprint: 0xe86735b8
Variable types: 0 continuous, 4073 integer (4073 binary)
Coefficient statistics:
  Matrix range     [1e+00, 2e+02]
  Objective range  [4e+01, 2e+02]
  Bounds range     [1e+00, 1e+00]
  RHS range        [1e+00, 1e+01]

User MIP start 0 produced solution with objective 45 (0.03s)
Loaded user MIP start 0 with objective 45
User MIP start 1 did not produce a new incumbent solution
User MIP start 2 did not produce a new incumbent solution

Presolve removed 599 rows and 3885 columns
Presolve time: 0.25s
Presolved: 114 rows, 188 columns, 1116 nonzeros
Variable types: 0 continuous, 188 integer (179 binary)
Root barrier log...

Ordering time: 0.00s

Barrier statistics:
 AA' NZ     : 7.630e+02
 Factor NZ  : 1.445e+03
 Factor Ops : 2.411e+04 (less than 1 second per iteration)
 Threads    : 1

                  Objective                Residual
Iter       Primal          Dual         Primal    Dual     Compl     Time
   0   4.53178656e+01  2.86970903e+01  3.51e+01 2.64e-02  5.67e-01     0s
   1   4.40414661e+01  2.76108408e+01  9.16e+00 5.00e-16  1.39e-01     0s
   2   4.33577840e+01  3.77461795e+01  3.00e-01 3.89e-16  1.55e-02     0s
   3   4.30490728e+01  4.25045113e+01  4.97e-03 1.67e-16  1.32e-03     0s
   4   4.30004425e+01  4.29955815e+01  1.44e-05 5.64e-17  1.17e-05     0s
   5   4.30000004e+01  4.29999956e+01  8.34e-09 3.33e-16  1.16e-08     0s
   6   4.30000000e+01  4.30000000e+01  8.35e-12 1.93e-16  1.16e-11     0s

Barrier solved model in 6 iterations and 0.31 seconds (0.26 work units)
Optimal objective 4.30000000e+01


Root relaxation: objective 4.300000e+01, 132 iterations, 0.00 seconds (0.00 work units)

    Nodes    |    Current Node    |     Objective Bounds      |     Work
 Expl Unexpl |  Obj  Depth IntInf | Incumbent    BestBd   Gap | It/Node Time

H    0     0                      43.0000000   43.00000  0.00%     -    0s
     0     0   43.00000    0    5   43.00000   43.00000  0.00%     -    0s

Explored 1 nodes (209 simplex iterations) in 0.31 seconds (0.26 work units)
Thread count was 4 (of 8 available processors)

Solution count 2: 43 45 

Optimal solution found (tolerance 0.00e+00)
Best objective 4.300000000000e+01, best bound 4.300000000000e+01, gap 0.0000%
Warning: to let Gurobi read it back, use rlp format
